339858
42,51,38,62,66,28,9,63,4,22,48,16,21,3,49,26,50,8,20,36,17,30,80,71,60,24,14,41,7,81,2,78,73,64,12,58,29,5,74,57,52,43,70,67,10,47,27,32,55,33,11,82,19,0,72,44,65,69,61,75,79,35,25,40,45,13,53,23,77,54,31,39,34,37,46,15,59,56,76,6,18,1,68
